# Solution for model GasLib-40
# Objective value = 1.0718991475417543e+01
loadshed[innode_1] 0
loadshed[innode_2] 0
loadshed[innode_3] 0
loadshed[innode_4] 0
loadshed[innode_5] 0
loadshed[innode_6] 0
loadshed[innode_7] 0
loadshed[innode_8] 0
loadshed[source_1] -2.6445969060639718e-01
loadshed[source_2] -8.9698320755195349e-02
loadshed[source_3] 4.2196098840782670e-01
loadshed[sink_1] 0
loadshed[sink_2] 0
loadshed[sink_3] 0
loadshed[sink_4] 0
loadshed[sink_5] 0
loadshed[sink_6] 0
loadshed[sink_7] 0
loadshed[sink_8] 0
loadshed[sink_9] 0
loadshed[sink_10] 0
loadshed[sink_11] 0
loadshed[sink_12] 6.5542877811470324e-01
loadshed[sink_13] 0
loadshed[sink_14] 0
loadshed[sink_15] 0
loadshed[sink_16] 0
loadshed[sink_17] 0
loadshed[sink_18] 0
loadshed[sink_19] 0
loadshed[sink_20] 0
loadshed[sink_21] 0
loadshed[sink_22] 0
loadshed[sink_23] 0
loadshed[sink_24] 0
loadshed[sink_25] 0
loadshed[sink_26] 0
loadshed[sink_27] 0
loadshed[sink_28] 0
loadshed[sink_29] 0
flow[source_1,sink_3] 1.9989878372676827e+02
flow[innode_1,sink_16] 1.6354166666666970e+01
flow[innode_6,sink_13] 2.3096818757681117e+01
flow[sink_13,sink_14] 6.7426520910144490e+00
flow[sink_14,sink_10] -9.6115145756522189e+00
flow[sink_25,sink_26] 1.7624704831209539e+02
flow[sink_26,sink_9] 1.2389084975710423e+02
flow[sink_9,sink_18] 1.0753668309043756e+02
flow[sink_26,sink_4] 36.0020318883245
flow[sink_4,sink_20] -4.1992293545822349e+01
flow[sink_18,sink_6] 9.1182516423770892e+01
flow[sink_25,innode_8] -1.6719045039343192e+02
flow[sink_6,sink_7] 4.2120016423770721e+01
flow[sink_6,sink_22] 3.2708333333333641e+01
flow[sink_7,sink_24] 3.8343508524582461e+01
flow[sink_22,sink_1] 1.6354166666666970e+01
flow[sink_24,sink_21] 2.1989341857915790e+01
flow[sink_21,sink_12] 5.6351751912491235e+00
flow[sink_7,sink_5] -1.2577658767478383e+01
flow[sink_5,sink_17] -2.8931825434145026e+01
flow[sink_17,sink_4] -6.1640158767479988e+01
flow[sink_17,sink_8] 1.6354166666668334e+01
flow[sink_3,sink_23] 16.3541666666697
flow[sink_8,sink_20] 0
flow[sink_25,sink_20] 5.8346460212488921e+01
flow[sink_25,sink_15] -1.0685404355549893e+02
flow[sink_15,sink_29] -6.8013981674540616e+01
flow[sink_29,sink_28] 1.6354166666667879e+01
flow[sink_29,sink_2] 7.1548395214291659e+01
flow[sink_2,sink_15] 5.5194228547624988e+01
flow[sink_29,innode_7] -1.7227071022216683e+02
flow[innode_4,sink_19] 9.1382347908998781e+01
flow[sink_19,innode_3] 0
flow[innode_4,innode_5] 0
flow[sink_27,innode_5] 0
flow[sink_27,sink_19] -1.6354166666679703e+01
flow[sink_10,sink_11] 3.2708333333333641e+01
flow[sink_10,innode_2] -5.8674014575652336e+01
flow[sink_10,innode_3] 0
flow[innode_6,sink_25] -2.3096818757681117e+01
flow[sink_11,innode_1] 1.6354166666666970e+01
flow[sink_19,innode_2] 5.8674014575652336e+01
flow[source_3,innode_4] 9.1382347908998781e+01
flow[source_2,innode_7] 1.7227071022216683e+02
flow[sink_3,innode_8] 1.6719045039343192e+02
pressure[innode_1] 7.4058252933113266e+01
pressure[innode_2] 7.7311118242656889e+01
pressure[innode_3] 7.7311118242656889e+01
pressure[innode_4] 81.01325
pressure[innode_5] 7.6959988245513387e+01
pressure[innode_6] 7.3894738549496140e+01
pressure[innode_7] 81.01325
pressure[innode_8] 80.3450647301047
pressure[source_1] 81.01325
pressure[source_2] 81.01325
pressure[source_3] 81.01325
pressure[sink_1] 4.5639655336001681e+01
pressure[sink_2] 7.4593281773249416e+01
pressure[sink_3] 80.3450647301047
pressure[sink_4] 5.6904370929327108e+01
pressure[sink_5] 5.2393475443771734e+01
pressure[sink_6] 4.7740732946389052e+01
pressure[sink_7] 4.7162525519814324e+01
pressure[sink_8] 5.3931602117961134e+01
pressure[sink_9] 5.4066575329582875e+01
pressure[sink_10] 7.4209954240716812e+01
pressure[sink_11] 7.4058252933113266e+01
pressure[sink_12] 1.0132499999999998e+00
pressure[sink_13] 7.3767409647522030e+01
pressure[sink_14] 73.7553430972582
pressure[sink_15] 7.4413084781653453e+01
pressure[sink_16] 7.3036603098295586e+01
pressure[sink_17] 5.4548687313374757e+01
pressure[sink_18] 5.0175577620932927e+01
pressure[sink_19] 7.7311118242656889e+01
pressure[sink_20] 5.9985120837357208e+01
pressure[sink_21] 3.0185537473859960e+00
pressure[sink_22] 4.6703424478356688e+01
pressure[sink_23] 8.0180346718444909e+01
pressure[sink_24] 3.2620652779272339e+00
pressure[sink_25] 7.3894738549496140e+01
pressure[sink_26] 6.1481762441026824e+01
pressure[sink_27] 7.6959988245513387e+01
pressure[sink_28] 76.1104010976718
pressure[sink_29] 7.6405683371288973e+01
interdiction[source_1,sink_3] 0
interdiction[innode_1,sink_16] 0
interdiction[innode_6,sink_13] 0
interdiction[sink_13,sink_14] 0
interdiction[sink_14,sink_10] 0
interdiction[sink_25,sink_26] 0
interdiction[sink_26,sink_9] 0
interdiction[sink_9,sink_18] 0
interdiction[sink_26,sink_4] 0
interdiction[sink_4,sink_20] 0
interdiction[sink_18,sink_6] 0
interdiction[sink_25,innode_8] 0
interdiction[sink_6,sink_7] 0
interdiction[sink_6,sink_22] 0
interdiction[sink_7,sink_24] 0
interdiction[sink_22,sink_1] 0
interdiction[sink_24,sink_21] 0
interdiction[sink_21,sink_12] 0
interdiction[sink_7,sink_5] 0
interdiction[sink_5,sink_17] 0
interdiction[sink_17,sink_4] 0
interdiction[sink_17,sink_8] 0
interdiction[sink_3,sink_23] 0
interdiction[sink_8,sink_20] 1
interdiction[sink_25,sink_20] 0
interdiction[sink_25,sink_15] 0
interdiction[sink_15,sink_29] 0
interdiction[sink_29,sink_28] 0
interdiction[sink_29,sink_2] 0
interdiction[sink_2,sink_15] 0
interdiction[sink_29,innode_7] 0
interdiction[innode_4,sink_19] 0
interdiction[sink_19,innode_3] 0
interdiction[innode_4,innode_5] 1
interdiction[sink_27,innode_5] 0
interdiction[sink_27,sink_19] 0
interdiction[sink_10,sink_11] 0
interdiction[sink_10,innode_2] 0
interdiction[sink_10,innode_3] 1
interdiction[innode_6,sink_25] 0
interdiction[sink_11,innode_1] 0
interdiction[sink_19,innode_2] 0
interdiction[source_3,innode_4] 0
interdiction[source_2,innode_7] 0
interdiction[sink_3,innode_8] 0
WCcheckFlow[source_1,sink_3] 39
WCcheckFlow[innode_1,sink_16] 1
WCcheckFlow[innode_6,sink_13] 13
WCcheckFlow[sink_13,sink_14] 12
WCcheckFlow[sink_14,sink_10] 11
WCcheckFlow[sink_25,sink_26] 15
WCcheckFlow[sink_26,sink_9] 12
WCcheckFlow[sink_9,sink_18] 11
WCcheckFlow[sink_26,sink_4] 2
WCcheckFlow[sink_4,sink_20] 1
WCcheckFlow[sink_18,sink_6] 10
WCcheckFlow[sink_25,innode_8] -36
WCcheckFlow[sink_6,sink_7] 7
WCcheckFlow[sink_6,sink_22] 2
WCcheckFlow[sink_7,sink_24] 3
WCcheckFlow[sink_22,sink_1] 1
WCcheckFlow[sink_24,sink_21] 2
WCcheckFlow[sink_21,sink_12] 1
WCcheckFlow[sink_7,sink_5] 3
WCcheckFlow[sink_5,sink_17] 2
WCcheckFlow[sink_17,sink_4] 0
WCcheckFlow[sink_17,sink_8] 1
WCcheckFlow[sink_3,sink_23] 1
WCcheckFlow[sink_8,sink_20] 0
WCcheckFlow[sink_25,sink_20] 0
WCcheckFlow[sink_25,sink_15] 6
WCcheckFlow[sink_15,sink_29] 5
WCcheckFlow[sink_29,sink_28] 1
WCcheckFlow[sink_29,sink_2] 1
WCcheckFlow[sink_2,sink_15] 0
WCcheckFlow[sink_29,innode_7] 2
WCcheckFlow[innode_4,sink_19] -2
WCcheckFlow[sink_19,innode_3] 1
WCcheckFlow[innode_4,innode_5] 0
WCcheckFlow[sink_27,innode_5] 1
WCcheckFlow[sink_27,sink_19] -2
WCcheckFlow[sink_10,sink_11] 3
WCcheckFlow[sink_10,innode_2] 7
WCcheckFlow[sink_10,innode_3] 0
WCcheckFlow[innode_6,sink_25] -14
WCcheckFlow[sink_11,innode_1] 2
WCcheckFlow[sink_19,innode_2] -6
WCcheckFlow[source_3,innode_4] -1
WCcheckFlow[source_2,innode_7] -1
WCcheckFlow[sink_3,innode_8] 37
